p cnf 176 315
e 1 2 3 4 5 6 7 8 9 10 11 12 13 14 15 16 17 18 19 20 21 22 23 24 25 26 27 28 29 30 31 32 33 34 35 36 37 38 39 40 41 42 43 44 45 46 47 48 49 50 51 52 53 54 55 56 57 58 59 60 61 62 63 64 65 66 67 68 69 70 71 72 73 74 75 76 77 78 79 80 81 82 83 84 85 86 87 88 89 90 91 92 93 94 95 96 97 98 99 100 101 102 103 104 105 106 107 108 109 110 111 112 113 114 115 116 117 118 119 120 121 122 123 124 125 126 127 128 129 130 131 132 133 134 135 136 137 138 139 140 141 142 143 144 145 146 147 148 149 150 151 152 153 154 155 156 157 158 159 160 161 162 163 164 165 166 167 168 169 170 171 172 173 174 175 176 0
-7 0
113 0
156 0
-11 0
-46 0
-83 0
-95 0
-140 0
-144 0
-39 0
-42 0
-89 0
-98 0
-146 0
-153 0
-176 0
-155 0
-5 0
-9 0
-77 0
-141 0
117 0
-148 0
-14 0
-65 0
120 0
122 0
-29 0
-35 0
-12 0
-37 0
-151 0
-3 0
-18 0
-21 0
-80 0
-104 0
-152 0
-142 0
-20 0
-32 0
-38 0
-6 0
-28 0
-86 0
114 0
-8 0
-24 0
-33 0
-45 0
-92 0
-101 0
-107 0
-26 0
-15 0
109 0
112 0
123 0
-154 0
-149 0
-23 0
-19 0
-68 0
-71 0
121 0
-150 0
119 0
-124 0
-2 0
-4 0
-22 0
-31 0
-40 0
115 0
-30 0
-34 0
-143 0
108 0
-13 0
-16 0
-36 0
116 0
-147 0
-145 0
-17 0
-41 0
-44 0
-43 0
-74 0
111 0
1 0
-10 0
-25 0
-27 0
110 0
118 0
-63 64 0
63 -64 0
-66 67 0
66 -67 0
-69 70 0
69 -70 0
-72 73 0
72 -73 0
-75 76 0
75 -76 0
-78 79 0
78 -79 0
-81 82 0
81 -82 0
-84 85 0
84 -85 0
-87 88 0
87 -88 0
-90 91 0
90 -91 0
-93 94 0
93 -94 0
-96 97 0
96 -97 0
-99 100 0
99 -100 0
-102 103 0
102 -103 0
-105 106 0
105 -106 0
47 -64 0
47 -67 0
47 -70 0
47 -73 0
47 -76 0
47 -79 0
47 -82 0
47 -85 0
47 -88 0
47 -91 0
47 -94 0
47 -97 0
47 -100 0
47 -103 0
47 -106 0
48 -64 0
49 -67 0
50 -70 0
51 -73 0
52 -76 0
53 -79 0
54 -82 0
55 -85 0
56 -88 0
57 -91 0
58 -94 0
59 -97 0
60 -100 0
61 -103 0
62 -106 0
157 -64 -67 -70 0
-157 64 0
-157 67 0
-157 70 0
158 -76 -79 -82 0
-158 76 0
-158 79 0
-158 82 0
159 -88 -91 -94 0
-159 88 0
-159 91 0
-159 94 0
160 -100 -103 -106 0
-160 100 0
-160 103 0
-160 106 0
161 -88 -97 -100 0
-161 88 0
-161 97 0
-161 100 0
162 -67 -79 0
-162 67 0
-162 79 0
163 -91 -103 0
-163 91 0
-163 103 0
164 -70 -73 -82 0
-164 70 0
-164 73 0
-164 82 0
165 -64 -82 0
-165 64 0
-165 82 0
166 -88 -106 0
-166 88 0
-166 106 0
167 -70 -76 0
-167 70 0
-167 76 0
168 -85 0
-168 85 0
169 -67 -85 -103 0
-169 67 0
-169 85 0
-169 103 0
170 -79 -85 -91 0
-170 79 0
-170 85 0
-170 91 0
171 -73 -85 -97 0
-171 73 0
-171 85 0
-171 97 0
172 -64 -85 -106 0
-172 64 0
-172 85 0
-172 106 0
173 -70 -85 -106 0
-173 70 0
-173 85 0
-173 106 0
174 -76 -85 -94 0
-174 76 0
-174 85 0
-174 94 0
175 -82 -85 -88 0
-175 82 0
-175 85 0
-175 88 0
157 158 159 160 161 162 163 164 165 166 167 168 169 170 171 172 173 174 175 0
-48 125 0
48 -125 0
-49 126 0
-125 126 0
49 -126 125 0
-49 -125 0
-50 127 0
-126 127 0
50 -127 126 0
-50 -126 0
-51 128 0
-127 128 0
51 -128 127 0
-51 -127 0
-52 129 0
-128 129 0
52 -129 128 0
-52 -128 0
-53 130 0
-129 130 0
53 -130 129 0
-53 -129 0
-54 131 0
-130 131 0
54 -131 130 0
-54 -130 0
-55 132 0
-131 132 0
55 -132 131 0
-55 -131 0
-56 133 0
-132 133 0
56 -133 132 0
-56 -132 0
-57 134 0
-133 134 0
57 -134 133 0
-57 -133 0
-58 135 0
-134 135 0
58 -135 134 0
-58 -134 0
-59 136 0
-135 136 0
59 -136 135 0
-59 -135 0
-60 137 0
-136 137 0
60 -137 136 0
-60 -136 0
-61 138 0
-137 138 0
61 -138 137 0
-61 -137 0
-62 139 0
-138 139 0
62 -139 138 0
-62 -138 0
-47 139 0
-48 64 0
-48 47 0
-49 67 0
-49 47 0
-50 70 0
-50 47 0
-51 73 0
-51 47 0
-52 76 0
-52 47 0
-53 79 0
-53 47 0
-54 82 0
-54 47 0
-55 85 0
-55 47 0
-56 88 0
-56 47 0
-57 91 0
-57 47 0
-58 94 0
-58 47 0
-59 97 0
-59 47 0
-60 100 0
-60 47 0
-61 103 0
-61 47 0
-62 106 0
-62 47 0
